
Gurobi 9.1.1 (win64) logging started Sun Mar 14 12:58:00 2021

Changed value of parameter LogFile to ../results/logs/log_samuel_kroger_2021_03_14_12_58_00.csv_2_2.log
   Prev:   Default: 
Gurobi Optimizer version 9.1.1 build v9.1.1rc0 (win64)
Thread count: 6 physical cores, 12 logical processors, using up to 12 threads
Optimize a model with 21 rows, 32 columns and 84 nonzeros
Model fingerprint: 0x7e192d7e
Coefficient statistics:
  Matrix range     [1e+00, 2e+00]
  Objective range  [1e+00, 1e+00]
  Bounds range     [1e+00, 1e+00]
  RHS range        [1e+00, 2e+00]
Presolve removed 21 rows and 32 columns
Presolve time: 0.00s
Presolve: All rows and columns removed
Iteration    Objective       Primal Inf.    Dual Inf.      Time
       0    1.4000000e+01   0.000000e+00   0.000000e+00      0s

Solved in 0 iterations and 0.00 seconds
Optimal objective  1.400000000e+01
